############################################################
#Archivo de entrada para moltemplate creado con eafitdm
import	'curcumin.lt'
import	'acrylic_acid.lt'
import	'egdma.lt'
import	'acetonitrile.lt'
write_once("In Init") {
#Sientase libre de modificar esto a su gusto!
units             real
atom_style        full
pair_style        lj/cut/coul/long  10.0	10.0
kspace_style 	   pppm 1.0e-4
special_bonds     lj/coul 0.0 0.0 0.5
bond_style        harmonic
angle_style       harmonic
dihedral_style    opls
improper_style    cvff
pair_modify       mix geometric
boundary          p p p
}


write_once('Data Boundary') {
	0.0	63.00	xlo	 xhi
	0.0	63.00	ylo	 yhi
	0.0	63.00	zlo	 zhi
}

molecs1 = new curcumin[1]
molecs2 = new acrylic_acid[100]
molecs3 = new egdma[400]
molecs4 = new acetonitrile[1000]
write_once('In Settings') {
	pair_coeff	@atom:curcumin/H1	@atom:curcumin/H1		0.00000	0.00000
	pair_coeff	@atom:curcumin/H1	@atom:curcumin/O2		0.00000	0.00000
	pair_coeff	@atom:curcumin/H1	@atom:curcumin/C3		0.00000	0.00000
	pair_coeff	@atom:curcumin/H1	@atom:curcumin/C4		0.00000	0.00000
	pair_coeff	@atom:curcumin/H1	@atom:curcumin/C5		0.00000	0.00000
	pair_coeff	@atom:curcumin/H1	@atom:curcumin/H6		0.00000	0.00000
	pair_coeff	@atom:curcumin/H1	@atom:curcumin/C7		0.00000	0.00000
	pair_coeff	@atom:curcumin/H1	@atom:curcumin/O8		0.00000	0.00000
	pair_coeff	@atom:curcumin/H1	@atom:curcumin/C9		0.00000	0.00000
	pair_coeff	@atom:curcumin/H1	@atom:curcumin/H10		0.00000	0.00000
	pair_coeff	@atom:curcumin/H1	@atom:curcumin/C11		0.00000	0.00000
	pair_coeff	@atom:curcumin/H1	@atom:curcumin/C12		0.00000	0.00000
	pair_coeff	@atom:curcumin/H1	@atom:curcumin/H13		0.00000	0.00000
	pair_coeff	@atom:curcumin/H1	@atom:curcumin/C14		0.00000	0.00000
	pair_coeff	@atom:curcumin/H1	@atom:curcumin/H15		0.00000	0.00000
	pair_coeff	@atom:curcumin/H1	@atom:curcumin/H16		0.00000	0.00000
	pair_coeff	@atom:curcumin/H1	@atom:curcumin/H17		0.00000	0.00000
	pair_coeff	@atom:curcumin/H1	@atom:curcumin/C18		0.00000	0.00000
	pair_coeff	@atom:curcumin/H1	@atom:curcumin/H19		0.00000	0.00000
	pair_coeff	@atom:curcumin/H1	@atom:curcumin/C20		0.00000	0.00000
	pair_coeff	@atom:curcumin/H1	@atom:curcumin/H21		0.00000	0.00000
	pair_coeff	@atom:curcumin/H1	@atom:curcumin/C22		0.00000	0.00000
	pair_coeff	@atom:curcumin/H1	@atom:curcumin/O23		0.00000	0.00000
	pair_coeff	@atom:curcumin/H1	@atom:curcumin/C24		0.00000	0.00000
	pair_coeff	@atom:curcumin/H1	@atom:curcumin/H25		0.00000	0.00000
	pair_coeff	@atom:curcumin/H1	@atom:curcumin/H26		0.00000	0.00000
	pair_coeff	@atom:curcumin/H1	@atom:curcumin/C27		0.00000	0.00000
	pair_coeff	@atom:curcumin/H1	@atom:curcumin/O28		0.00000	0.00000
	pair_coeff	@atom:curcumin/H1	@atom:curcumin/C29		0.00000	0.00000
	pair_coeff	@atom:curcumin/H1	@atom:curcumin/H30		0.00000	0.00000
	pair_coeff	@atom:curcumin/H1	@atom:curcumin/C31		0.00000	0.00000
	pair_coeff	@atom:curcumin/H1	@atom:curcumin/H32		0.00000	0.00000
	pair_coeff	@atom:curcumin/H1	@atom:curcumin/C33		0.00000	0.00000
	pair_coeff	@atom:curcumin/H1	@atom:curcumin/C34		0.00000	0.00000
	pair_coeff	@atom:curcumin/H1	@atom:curcumin/H35		0.00000	0.00000
	pair_coeff	@atom:curcumin/H1	@atom:curcumin/C36		0.00000	0.00000
	pair_coeff	@atom:curcumin/H1	@atom:curcumin/H37		0.00000	0.00000
	pair_coeff	@atom:curcumin/H1	@atom:curcumin/C38		0.00000	0.00000
	pair_coeff	@atom:curcumin/H1	@atom:curcumin/H39		0.00000	0.00000
	pair_coeff	@atom:curcumin/H1	@atom:curcumin/C40		0.00000	0.00000
	pair_coeff	@atom:curcumin/H1	@atom:curcumin/O41		0.00000	0.00000
	pair_coeff	@atom:curcumin/H1	@atom:curcumin/O42		0.00000	0.00000
	pair_coeff	@atom:curcumin/H1	@atom:curcumin/C43		0.00000	0.00000
	pair_coeff	@atom:curcumin/H1	@atom:curcumin/H44		0.00000	0.00000
	pair_coeff	@atom:curcumin/H1	@atom:curcumin/H45		0.00000	0.00000
	pair_coeff	@atom:curcumin/H1	@atom:curcumin/H46		0.00000	0.00000
	pair_coeff	@atom:curcumin/H1	@atom:curcumin/H47		0.00000	0.00000
	pair_coeff	@atom:curcumin/H1	@atom:acrylic_acid/O1		0.00000	0.00000
	pair_coeff	@atom:curcumin/H1	@atom:acrylic_acid/C2		0.00000	0.00000
	pair_coeff	@atom:curcumin/H1	@atom:acrylic_acid/O3		0.00000	0.00000
	pair_coeff	@atom:curcumin/H1	@atom:acrylic_acid/C4		0.00000	0.00000
	pair_coeff	@atom:curcumin/H1	@atom:acrylic_acid/C5		0.00000	0.00000
	pair_coeff	@atom:curcumin/H1	@atom:acrylic_acid/H6		0.00000	0.00000
	pair_coeff	@atom:curcumin/H1	@atom:acrylic_acid/H7		0.00000	0.00000
	pair_coeff	@atom:curcumin/H1	@atom:acrylic_acid/H8		0.00000	0.00000
	pair_coeff	@atom:curcumin/H1	@atom:acrylic_acid/H9		0.00000	0.00000
	pair_coeff	@atom:curcumin/H1	@atom:egdma/C1		0.00000	0.00000
	pair_coeff	@atom:curcumin/H1	@atom:egdma/C2		0.00000	0.00000
	pair_coeff	@atom:curcumin/H1	@atom:egdma/C3		0.00000	0.00000
	pair_coeff	@atom:curcumin/H1	@atom:egdma/C4		0.00000	0.00000
	pair_coeff	@atom:curcumin/H1	@atom:egdma/O5		0.00000	0.00000
	pair_coeff	@atom:curcumin/H1	@atom:egdma/O6		0.00000	0.00000
	pair_coeff	@atom:curcumin/H1	@atom:egdma/C7		0.00000	0.00000
	pair_coeff	@atom:curcumin/H1	@atom:egdma/C8		0.00000	0.00000
	pair_coeff	@atom:curcumin/H1	@atom:egdma/O9		0.00000	0.00000
	pair_coeff	@atom:curcumin/H1	@atom:egdma/C10		0.00000	0.00000
	pair_coeff	@atom:curcumin/H1	@atom:egdma/O11		0.00000	0.00000
	pair_coeff	@atom:curcumin/H1	@atom:egdma/C12		0.00000	0.00000
	pair_coeff	@atom:curcumin/H1	@atom:egdma/C13		0.00000	0.00000
	pair_coeff	@atom:curcumin/H1	@atom:egdma/C14		0.00000	0.00000
	pair_coeff	@atom:curcumin/H1	@atom:egdma/H15		0.00000	0.00000
	pair_coeff	@atom:curcumin/H1	@atom:egdma/H16		0.00000	0.00000
	pair_coeff	@atom:curcumin/H1	@atom:egdma/H17		0.00000	0.00000
	pair_coeff	@atom:curcumin/H1	@atom:egdma/H18		0.00000	0.00000
	pair_coeff	@atom:curcumin/H1	@atom:egdma/H19		0.00000	0.00000
	pair_coeff	@atom:curcumin/H1	@atom:egdma/H20		0.00000	0.00000
	pair_coeff	@atom:curcumin/H1	@atom:egdma/H21		0.00000	0.00000
	pair_coeff	@atom:curcumin/H1	@atom:egdma/H22		0.00000	0.00000
	pair_coeff	@atom:curcumin/H1	@atom:egdma/H23		0.00000	0.00000
	pair_coeff	@atom:curcumin/H1	@atom:egdma/H24		0.00000	0.00000
	pair_coeff	@atom:curcumin/H1	@atom:egdma/H25		0.00000	0.00000
	pair_coeff	@atom:curcumin/H1	@atom:egdma/H26		0.00000	0.00000
	pair_coeff	@atom:curcumin/H1	@atom:egdma/H27		0.00000	0.00000
	pair_coeff	@atom:curcumin/H1	@atom:egdma/H28		0.00000	0.00000
	pair_coeff	@atom:curcumin/H1	@atom:acetonitrile/C1		0.00000	0.00000
	pair_coeff	@atom:curcumin/H1	@atom:acetonitrile/N2		0.00000	0.00000
	pair_coeff	@atom:curcumin/H1	@atom:acetonitrile/C3		0.00000	0.00000
	pair_coeff	@atom:curcumin/H1	@atom:acetonitrile/H4		0.00000	0.00000
	pair_coeff	@atom:curcumin/H1	@atom:acetonitrile/H5		0.00000	0.00000
	pair_coeff	@atom:curcumin/H1	@atom:acetonitrile/H6		0.00000	0.00000
	pair_coeff	@atom:curcumin/O2	@atom:curcumin/O2		0.17000	3.12000
	pair_coeff	@atom:curcumin/O2	@atom:curcumin/C3		0.10909	3.32806
	pair_coeff	@atom:curcumin/O2	@atom:curcumin/C4		0.10909	3.32806
	pair_coeff	@atom:curcumin/O2	@atom:curcumin/C5		0.10909	3.32806
	pair_coeff	@atom:curcumin/O2	@atom:curcumin/H6		0.07141	2.74780
	pair_coeff	@atom:curcumin/O2	@atom:curcumin/C7		0.10909	3.32806
	pair_coeff	@atom:curcumin/O2	@atom:curcumin/O8		0.15427	3.00799
	pair_coeff	@atom:curcumin/O2	@atom:curcumin/C9		0.10909	3.32806
	pair_coeff	@atom:curcumin/O2	@atom:curcumin/H10		0.07141	2.74780
	pair_coeff	@atom:curcumin/O2	@atom:curcumin/C11		0.10909	3.32806
	pair_coeff	@atom:curcumin/O2	@atom:curcumin/C12		0.10592	3.30454
	pair_coeff	@atom:curcumin/O2	@atom:curcumin/H13		0.07141	2.74780
	pair_coeff	@atom:curcumin/O2	@atom:curcumin/C14		0.11367	3.32806
	pair_coeff	@atom:curcumin/O2	@atom:curcumin/H15		0.07141	2.79285
	pair_coeff	@atom:curcumin/O2	@atom:curcumin/H16		0.07141	2.79285
	pair_coeff	@atom:curcumin/O2	@atom:curcumin/H17		0.07141	2.79285
	pair_coeff	@atom:curcumin/O2	@atom:curcumin/C18		0.11367	3.32806
	pair_coeff	@atom:curcumin/O2	@atom:curcumin/H19		0.07141	2.79285
	pair_coeff	@atom:curcumin/O2	@atom:curcumin/C20		0.10909	3.32806
	pair_coeff	@atom:curcumin/O2	@atom:curcumin/H21		0.07141	2.79285
	pair_coeff	@atom:curcumin/O2	@atom:curcumin/C22		0.10592	3.30454
	pair_coeff	@atom:curcumin/O2	@atom:curcumin/O23		0.18894	3.03895
	pair_coeff	@atom:curcumin/O2	@atom:curcumin/C24		0.10909	3.32806
	pair_coeff	@atom:curcumin/O2	@atom:curcumin/H25		0.07141	2.79285
	pair_coeff	@atom:curcumin/O2	@atom:curcumin/H26		0.07141	2.79285
	pair_coeff	@atom:curcumin/O2	@atom:curcumin/C27		0.11367	3.32806
	pair_coeff	@atom:curcumin/O2	@atom:curcumin/O28		0.18894	3.03895
	pair_coeff	@atom:curcumin/O2	@atom:curcumin/C29		0.11367	3.32806
	pair_coeff	@atom:curcumin/O2	@atom:curcumin/H30		0.07141	2.79285
	pair_coeff	@atom:curcumin/O2	@atom:curcumin/C31		0.10909	3.32806
	pair_coeff	@atom:curcumin/O2	@atom:curcumin/H32		0.07141	2.79285
	pair_coeff	@atom:curcumin/O2	@atom:curcumin/C33		0.10909	3.32806
	pair_coeff	@atom:curcumin/O2	@atom:curcumin/C34		0.10909	3.32806
	pair_coeff	@atom:curcumin/O2	@atom:curcumin/H35		0.07141	2.74780
	pair_coeff	@atom:curcumin/O2	@atom:curcumin/C36		0.10909	3.32806
	pair_coeff	@atom:curcumin/O2	@atom:curcumin/H37		0.07141	2.74780
	pair_coeff	@atom:curcumin/O2	@atom:curcumin/C38		0.10909	3.32806
	pair_coeff	@atom:curcumin/O2	@atom:curcumin/H39		0.07141	2.74780
	pair_coeff	@atom:curcumin/O2	@atom:curcumin/C40		0.10909	3.32806
	pair_coeff	@atom:curcumin/O2	@atom:curcumin/O41		0.15427	3.00799
	pair_coeff	@atom:curcumin/O2	@atom:curcumin/O42		0.17000	3.12000
	pair_coeff	@atom:curcumin/O2	@atom:curcumin/C43		0.10592	3.30454
	pair_coeff	@atom:curcumin/O2	@atom:curcumin/H44		0.00000	0.00000
	pair_coeff	@atom:curcumin/O2	@atom:curcumin/H45		0.07141	2.79285
	pair_coeff	@atom:curcumin/O2	@atom:curcumin/H46		0.07141	2.79285
	pair_coeff	@atom:curcumin/O2	@atom:curcumin/H47		0.07141	2.79285
	pair_coeff	@atom:curcumin/O2	@atom:acrylic_acid/O1		0.18894	3.03895
	pair_coeff	@atom:curcumin/O2	@atom:acrylic_acid/C2		0.10909	3.32806
	pair_coeff	@atom:curcumin/O2	@atom:acrylic_acid/O3		0.17000	3.12000
	pair_coeff	@atom:curcumin/O2	@atom:acrylic_acid/C4		0.11367	3.32806
	pair_coeff	@atom:curcumin/O2	@atom:acrylic_acid/C5		0.11367	3.32806
	pair_coeff	@atom:curcumin/O2	@atom:acrylic_acid/H6		0.00000	0.00000
	pair_coeff	@atom:curcumin/O2	@atom:acrylic_acid/H7		0.07141	2.79285
	pair_coeff	@atom:curcumin/O2	@atom:acrylic_acid/H8		0.07141	2.79285
	pair_coeff	@atom:curcumin/O2	@atom:acrylic_acid/H9		0.07141	2.79285
	pair_coeff	@atom:curcumin/O2	@atom:egdma/C1		0.10592	3.30454
	pair_coeff	@atom:curcumin/O2	@atom:egdma/C2		0.11367	3.32806
	pair_coeff	@atom:curcumin/O2	@atom:egdma/C3		0.11367	3.32806
	pair_coeff	@atom:curcumin/O2	@atom:egdma/C4		0.10909	3.32806
	pair_coeff	@atom:curcumin/O2	@atom:egdma/O5		0.18894	3.03895
	pair_coeff	@atom:curcumin/O2	@atom:egdma/O6		0.15427	3.00799
	pair_coeff	@atom:curcumin/O2	@atom:egdma/C7		0.10592	3.30454
	pair_coeff	@atom:curcumin/O2	@atom:egdma/C8		0.10592	3.30454
	pair_coeff	@atom:curcumin/O2	@atom:egdma/O9		0.15427	3.00799
	pair_coeff	@atom:curcumin/O2	@atom:egdma/C10		0.10909	3.32806
	pair_coeff	@atom:curcumin/O2	@atom:egdma/O11		0.18894	3.03895
	pair_coeff	@atom:curcumin/O2	@atom:egdma/C12		0.11367	3.32806
	pair_coeff	@atom:curcumin/O2	@atom:egdma/C13		0.11367	3.32806
	pair_coeff	@atom:curcumin/O2	@atom:egdma/C14		0.10592	3.30454
	pair_coeff	@atom:curcumin/O2	@atom:egdma/H15		0.07141	2.79285
	pair_coeff	@atom:curcumin/O2	@atom:egdma/H16		0.07141	2.79285
	pair_coeff	@atom:curcumin/O2	@atom:egdma/H17		0.07141	2.79285
	pair_coeff	@atom:curcumin/O2	@atom:egdma/H18		0.07141	2.79285
	pair_coeff	@atom:curcumin/O2	@atom:egdma/H19		0.07141	2.79285
	pair_coeff	@atom:curcumin/O2	@atom:egdma/H20		0.07141	2.79285
	pair_coeff	@atom:curcumin/O2	@atom:egdma/H21		0.07141	2.79285
	pair_coeff	@atom:curcumin/O2	@atom:egdma/H22		0.07141	2.79285
	pair_coeff	@atom:curcumin/O2	@atom:egdma/H23		0.07141	2.79285
	pair_coeff	@atom:curcumin/O2	@atom:egdma/H24		0.07141	2.79285
	pair_coeff	@atom:curcumin/O2	@atom:egdma/H25		0.07141	2.79285
	pair_coeff	@atom:curcumin/O2	@atom:egdma/H26		0.07141	2.79285
	pair_coeff	@atom:curcumin/O2	@atom:egdma/H27		0.07141	2.79285
	pair_coeff	@atom:curcumin/O2	@atom:egdma/H28		0.07141	2.79285
	pair_coeff	@atom:curcumin/O2	@atom:acetonitrile/C1		0.10592	3.20874
	pair_coeff	@atom:curcumin/O2	@atom:acetonitrile/N2		0.17000	3.15975
	pair_coeff	@atom:curcumin/O2	@atom:acetonitrile/C3		0.10592	3.30454
	pair_coeff	@atom:curcumin/O2	@atom:acetonitrile/H4		0.07141	2.79285
	pair_coeff	@atom:curcumin/O2	@atom:acetonitrile/H5		0.07141	2.79285
	pair_coeff	@atom:curcumin/O2	@atom:acetonitrile/H6		0.07141	2.79285
	pair_coeff	@atom:curcumin/C3	@atom:curcumin/C3		0.07000	3.55000
	pair_coeff	@atom:curcumin/C3	@atom:curcumin/C4		0.07000	3.55000
	pair_coeff	@atom:curcumin/C3	@atom:curcumin/C5		0.07000	3.55000
	pair_coeff	@atom:curcumin/C3	@atom:curcumin/H6		0.04583	2.93104
	pair_coeff	@atom:curcumin/C3	@atom:curcumin/C7		0.07000	3.55000
	pair_coeff	@atom:curcumin/C3	@atom:curcumin/O8		0.09899	3.20858
	pair_coeff	@atom:curcumin/C3	@atom:curcumin/C9		0.07000	3.55000
	pair_coeff	@atom:curcumin/C3	@atom:curcumin/H10		0.04583	2.93104
	pair_coeff	@atom:curcumin/C3	@atom:curcumin/C11		0.07000	3.55000
	pair_coeff	@atom:curcumin/C3	@atom:curcumin/C12		0.06797	3.52491
	pair_coeff	@atom:curcumin/C3	@atom:curcumin/H13		0.04583	2.93104
	pair_coeff	@atom:curcumin/C3	@atom:curcumin/C14		0.07294	3.55000
	pair_coeff	@atom:curcumin/C3	@atom:curcumin/H15		0.04583	2.97909
	pair_coeff	@atom:curcumin/C3	@atom:curcumin/H16		0.04583	2.97909
	pair_coeff	@atom:curcumin/C3	@atom:curcumin/H17		0.04583	2.97909
	pair_coeff	@atom:curcumin/C3	@atom:curcumin/C18		0.07294	3.55000
	pair_coeff	@atom:curcumin/C3	@atom:curcumin/H19		0.04583	2.97909
	pair_coeff	@atom:curcumin/C3	@atom:curcumin/C20		0.07000	3.55000
	pair_coeff	@atom:curcumin/C3	@atom:curcumin/H21		0.04583	2.97909
	pair_coeff	@atom:curcumin/C3	@atom:curcumin/C22		0.06797	3.52491
	pair_coeff	@atom:curcumin/C3	@atom:curcumin/O23		0.12124	3.24160
	pair_coeff	@atom:curcumin/C3	@atom:curcumin/C24		0.07000	3.55000
	pair_coeff	@atom:curcumin/C3	@atom:curcumin/H25		0.04583	2.97909
	pair_coeff	@atom:curcumin/C3	@atom:curcumin/H26		0.04583	2.97909
	pair_coeff	@atom:curcumin/C3	@atom:curcumin/C27		0.07294	3.55000
	pair_coeff	@atom:curcumin/C3	@atom:curcumin/O28		0.12124	3.24160
	pair_coeff	@atom:curcumin/C3	@atom:curcumin/C29		0.07294	3.55000
	pair_coeff	@atom:curcumin/C3	@atom:curcumin/H30		0.04583	2.97909
	pair_coeff	@atom:curcumin/C3	@atom:curcumin/C31		0.07000	3.55000
	pair_coeff	@atom:curcumin/C3	@atom:curcumin/H32		0.04583	2.97909
	pair_coeff	@atom:curcumin/C3	@atom:curcumin/C33		0.07000	3.55000
	pair_coeff	@atom:curcumin/C3	@atom:curcumin/C34		0.07000	3.55000
	pair_coeff	@atom:curcumin/C3	@atom:curcumin/H35		0.04583	2.93104
	pair_coeff	@atom:curcumin/C3	@atom:curcumin/C36		0.07000	3.55000
	pair_coeff	@atom:curcumin/C3	@atom:curcumin/H37		0.04583	2.93104
	pair_coeff	@atom:curcumin/C3	@atom:curcumin/C38		0.07000	3.55000
	pair_coeff	@atom:curcumin/C3	@atom:curcumin/H39		0.04583	2.93104
	pair_coeff	@atom:curcumin/C3	@atom:curcumin/C40		0.07000	3.55000
	pair_coeff	@atom:curcumin/C3	@atom:curcumin/O41		0.09899	3.20858
	pair_coeff	@atom:curcumin/C3	@atom:curcumin/O42		0.10909	3.32806
	pair_coeff	@atom:curcumin/C3	@atom:curcumin/C43		0.06797	3.52491
	pair_coeff	@atom:curcumin/C3	@atom:curcumin/H44		0.00000	0.00000
	pair_coeff	@atom:curcumin/C3	@atom:curcumin/H45		0.04583	2.97909
	pair_coeff	@atom:curcumin/C3	@atom:curcumin/H46		0.04583	2.97909
	pair_coeff	@atom:curcumin/C3	@atom:curcumin/H47		0.04583	2.97909
	pair_coeff	@atom:curcumin/C3	@atom:acrylic_acid/O1		0.12124	3.24160
	pair_coeff	@atom:curcumin/C3	@atom:acrylic_acid/C2		0.07000	3.55000
	pair_coeff	@atom:curcumin/C3	@atom:acrylic_acid/O3		0.10909	3.32806
	pair_coeff	@atom:curcumin/C3	@atom:acrylic_acid/C4		0.07294	3.55000
	pair_coeff	@atom:curcumin/C3	@atom:acrylic_acid/C5		0.07294	3.55000
	pair_coeff	@atom:curcumin/C3	@atom:acrylic_acid/H6		0.00000	0.00000
	pair_coeff	@atom:curcumin/C3	@atom:acrylic_acid/H7		0.04583	2.97909
	pair_coeff	@atom:curcumin/C3	@atom:acrylic_acid/H8		0.04583	2.97909
	pair_coeff	@atom:curcumin/C3	@atom:acrylic_acid/H9		0.04583	2.97909
	pair_coeff	@atom:curcumin/C3	@atom:egdma/C1		0.06797	3.52491
	pair_coeff	@atom:curcumin/C3	@atom:egdma/C2		0.07294	3.55000
	pair_coeff	@atom:curcumin/C3	@atom:egdma/C3		0.07294	3.55000
	pair_coeff	@atom:curcumin/C3	@atom:egdma/C4		0.07000	3.55000
	pair_coeff	@atom:curcumin/C3	@atom:egdma/O5		0.12124	3.24160
	pair_coeff	@atom:curcumin/C3	@atom:egdma/O6		0.09899	3.20858
	pair_coeff	@atom:curcumin/C3	@atom:egdma/C7		0.06797	3.52491
	pair_coeff	@atom:curcumin/C3	@atom:egdma/C8		0.06797	3.52491
	pair_coeff	@atom:curcumin/C3	@atom:egdma/O9		0.09899	3.20858
	pair_coeff	@atom:curcumin/C3	@atom:egdma/C10		0.07000	3.55000
	pair_coeff	@atom:curcumin/C3	@atom:egdma/O11		0.12124	3.24160
	pair_coeff	@atom:curcumin/C3	@atom:egdma/C12		0.07294	3.55000
	pair_coeff	@atom:curcumin/C3	@atom:egdma/C13		0.07294	3.55000
	pair_coeff	@atom:curcumin/C3	@atom:egdma/C14		0.06797	3.52491
	pair_coeff	@atom:curcumin/C3	@atom:egdma/H15		0.04583	2.97909
	pair_coeff	@atom:curcumin/C3	@atom:egdma/H16		0.04583	2.97909
	pair_coeff	@atom:curcumin/C3	@atom:egdma/H17		0.04583	2.97909
	pair_coeff	@atom:curcumin/C3	@atom:egdma/H18		0.04583	2.97909
	pair_coeff	@atom:curcumin/C3	@atom:egdma/H19		0.04583	2.97909
	pair_coeff	@atom:curcumin/C3	@atom:egdma/H20		0.04583	2.97909
	pair_coeff	@atom:curcumin/C3	@atom:egdma/H21		0.04583	2.97909
	pair_coeff	@atom:curcumin/C3	@atom:egdma/H22		0.04583	2.97909
	pair_coeff	@atom:curcumin/C3	@atom:egdma/H23		0.04583	2.97909
	pair_coeff	@atom:curcumin/C3	@atom:egdma/H24		0.04583	2.97909
	pair_coeff	@atom:curcumin/C3	@atom:egdma/H25		0.04583	2.97909
	pair_coeff	@atom:curcumin/C3	@atom:egdma/H26		0.04583	2.97909
	pair_coeff	@atom:curcumin/C3	@atom:egdma/H27		0.04583	2.97909
	pair_coeff	@atom:curcumin/C3	@atom:egdma/H28		0.04583	2.97909
	pair_coeff	@atom:curcumin/C3	@atom:acetonitrile/C1		0.06797	3.42272
	pair_coeff	@atom:curcumin/C3	@atom:acetonitrile/N2		0.10909	3.37046
	pair_coeff	@atom:curcumin/C3	@atom:acetonitrile/C3		0.06797	3.52491
	pair_coeff	@atom:curcumin/C3	@atom:acetonitrile/H4		0.04583	2.97909
	pair_coeff	@atom:curcumin/C3	@atom:acetonitrile/H5		0.04583	2.97909
	pair_coeff	@atom:curcumin/C3	@atom:acetonitrile/H6		0.04583	2.97909
	pair_coeff	@atom:curcumin/C4	@atom:curcumin/C4		0.07000	3.55000
	pair_coeff	@atom:curcumin/C4	@atom:curcumin/C5		0.07000	3.55000
	pair_coeff	@atom:curcumin/C4	@atom:curcumin/H6		0.04583	2.93104
	pair_coeff	@atom:curcumin/C4	@atom:curcumin/C7		0.07000	3.55000
	pair_coeff	@atom:curcumin/C4	@atom:curcumin/O8		0.09899	3.20858
	pair_coeff	@atom:curcumin/C4	@atom:curcumin/C9		0.07000	3.55000
	pair_coeff	@atom:curcumin/C4	@atom:curcumin/H10		0.04583	2.93104
	pair_coeff	@atom:curcumin/C4	@atom:curcumin/C11		0.07000	3.55000
	pair_coeff	@atom:curcumin/C4	@atom:curcumin/C12		0.06797	3.52491
	pair_coeff	@atom:curcumin/C4	@atom:curcumin/H13		0.04583	2.93104
	pair_coeff	@atom:curcumin/C4	@atom:curcumin/C14		0.07294	3.55000
	pair_coeff	@atom:curcumin/C4	@atom:curcumin/H15		0.04583	2.97909
	pair_coeff	@atom:curcumin/C4	@atom:curcumin/H16		0.04583	2.97909
	pair_coeff	@atom:curcumin/C4	@atom:curcumin/H17		0.04583	2.97909
	pair_coeff	@atom:curcumin/C4	@atom:curcumin/C18		0.07294	3.55000
	pair_coeff	@atom:curcumin/C4	@atom:curcumin/H19		0.04583	2.97909
	pair_coeff	@atom:curcumin/C4	@atom:curcumin/C20		0.07000	3.55000
	pair_coeff	@atom:curcumin/C4	@atom:curcumin/H21		0.04583	2.97909
	pair_coeff	@atom:curcumin/C4	@atom:curcumin/C22		0.06797	3.52491
	pair_coeff	@atom:curcumin/C4	@atom:curcumin/O23		0.12124	3.24160
	pair_coeff	@atom:curcumin/C4	@atom:curcumin/C24		0.07000	3.55000
	pair_coeff	@atom:curcumin/C4	@atom:curcumin/H25		0.04583	2.97909
	pair_coeff	@atom:curcumin/C4	@atom:curcumin/H26		0.04583	2.97909
	pair_coeff	@atom:curcumin/C4	@atom:curcumin/C27		0.07294	3.55000
	pair_coeff	@atom:curcumin/C4	@atom:curcumin/O28		0.12124	3.24160
	pair_coeff	@atom:curcumin/C4	@atom:curcumin/C29		0.07294	3.55000
	pair_coeff	@atom:curcumin/C4	@atom:curcumin/H30		0.04583	2.97909
	pair_coeff	@atom:curcumin/C4	@atom:curcumin/C31		0.07000	3.55000
	pair_coeff	@atom:curcumin/C4	@atom:curcumin/H32		0.04583	2.97909
	pair_coeff	@atom:curcumin/C4	@atom:curcumin/C33		0.07000	3.55000
	pair_coeff	@atom:curcumin/C4	@atom:curcumin/C34		0.07000	3.55000
	pair_coeff	@atom:curcumin/C4	@atom:curcumin/H35		0.04583	2.93104
	pair_coeff	@atom:curcumin/C4	@atom:curcumin/C36		0.07000	3.55000
	pair_coeff	@atom:curcumin/C4	@atom:curcumin/H37		0.04583	2.93104
	pair_coeff	@atom:curcumin/C4	@atom:curcumin/C38		0.07000	3.55000
	pair_coeff	@atom:curcumin/C4	@atom:curcumin/H39		0.04583	2.93104
	pair_coeff	@atom:curcumin/C4	@atom:curcumin/C40		0.07000	3.55000
	pair_coeff	@atom:curcumin/C4	@atom:curcumin/O41		0.09899	3.20858
	pair_coeff	@atom:curcumin/C4	@atom:curcumin/O42		0.10909	3.32806
	pair_coeff	@atom:curcumin/C4	@atom:curcumin/C43		0.06797	3.52491
	pair_coeff	@atom:curcumin/C4	@atom:curcumin/H44		0.00000	0.00000
	pair_coeff	@atom:curcumin/C4	@atom:curcumin/H45		0.04583	2.97909
	pair_coeff	@atom:curcumin/C4	@atom:curcumin/H46		0.04583	2.97909
	pair_coeff	@atom:curcumin/C4	@atom:curcumin/H47		0.04583	2.97909
	pair_coeff	@atom:curcumin/C4	@atom:acrylic_acid/O1		0.12124	3.24160
	pair_coeff	@atom:curcumin/C4	@atom:acrylic_acid/C2		0.07000	3.55000
	pair_coeff	@atom:curcumin/C4	@atom:acrylic_acid/O3		0.10909	3.32806
	pair_coeff	@atom:curcumin/C4	@atom:acrylic_acid/C4		0.07294	3.55000
	pair_coeff	@atom:curcumin/C4	@atom:acrylic_acid/C5		0.07294	3.55000
	pair_coeff	@atom:curcumin/C4	@atom:acrylic_acid/H6		0.00000	0.00000
	pair_coeff	@atom:curcumin/C4	@atom:acrylic_acid/H7		0.04583	2.97909
	pair_coeff	@atom:curcumin/C4	@atom:acrylic_acid/H8		0.04583	2.97909
	pair_coeff	@atom:curcumin/C4	@atom:acrylic_acid/H9		0.04583	2.97909
	pair_coeff	@atom:curcumin/C4	@atom:egdma/C1		0.06797	3.52491
	pair_coeff	@atom:curcumin/C4	@atom:egdma/C2		0.07294	3.55000
	pair_coeff	@atom:curcumin/C4	@atom:egdma/C3		0.07294	3.55000
	pair_coeff	@atom:curcumin/C4	@atom:egdma/C4		0.07000	3.55000
	pair_coeff	@atom:curcumin/C4	@atom:egdma/O5		0.12124	3.24160
	pair_coeff	@atom:curcumin/C4	@atom:egdma/O6		0.09899	3.20858
	pair_coeff	@atom:curcumin/C4	@atom:egdma/C7		0.06797	3.52491
	pair_coeff	@atom:curcumin/C4	@atom:egdma/C8		0.06797	3.52491
	pair_coeff	@atom:curcumin/C4	@atom:egdma/O9		0.09899	3.20858
	pair_coeff	@atom:curcumin/C4	@atom:egdma/C10		0.07000	3.55000
	pair_coeff	@atom:curcumin/C4	@atom:egdma/O11		0.12124	3.24160
	pair_coeff	@atom:curcumin/C4	@atom:egdma/C12		0.07294	3.55000
	pair_coeff	@atom:curcumin/C4	@atom:egdma/C13		0.07294	3.55000
	pair_coeff	@atom:curcumin/C4	@atom:egdma/C14		0.06797	3.52491
	pair_coeff	@atom:curcumin/C4	@atom:egdma/H15		0.04583	2.97909
	pair_coeff	@atom:curcumin/C4	@atom:egdma/H16		0.04583	2.97909
	pair_coeff	@atom:curcumin/C4	@atom:egdma/H17		0.04583	2.97909
	pair_coeff	@atom:curcumin/C4	@atom:egdma/H18		0.04583	2.97909
	pair_coeff	@atom:curcumin/C4	@atom:egdma/H19		0.04583	2.97909
	pair_coeff	@atom:curcumin/C4	@atom:egdma/H20		0.04583	2.97909
	pair_coeff	@atom:curcumin/C4	@atom:egdma/H21		0.04583	2.97909
	pair_coeff	@atom:curcumin/C4	@atom:egdma/H22		0.04583	2.97909
	pair_coeff	@atom:curcumin/C4	@atom:egdma/H23		0.04583	2.97909
	pair_coeff	@atom:curcumin/C4	@atom:egdma/H24		0.04583	2.97909
	pair_coeff	@atom:curcumin/C4	@atom:egdma/H25		0.04583	2.97909
	pair_coeff	@atom:curcumin/C4	@atom:egdma/H26		0.04583	2.97909
	pair_coeff	@atom:curcumin/C4	@atom:egdma/H27		0.04583	2.97909
	pair_coeff	@atom:curcumin/C4	@atom:egdma/H28		0.04583	2.97909
	pair_coeff	@atom:curcumin/C4	@atom:acetonitrile/C1		0.06797	3.42272
	pair_coeff	@atom:curcumin/C4	@atom:acetonitrile/N2		0.10909	3.37046
	pair_coeff	@atom:curcumin/C4	@atom:acetonitrile/C3		0.06797	3.52491
	pair_coeff	@atom:curcumin/C4	@atom:acetonitrile/H4		0.04583	2.97909
	pair_coeff	@atom:curcumin/C4	@atom:acetonitrile/H5		0.04583	2.97909
	pair_coeff	@atom:curcumin/C4	@atom:acetonitrile/H6		0.04583	2.97909
	pair_coeff	@atom:curcumin/C5	@atom:curcumin/C5		0.07000	3.55000
	pair_coeff	@atom:curcumin/C5	@atom:curcumin/H6		0.04583	2.93104
	pair_coeff	@atom:curcumin/C5	@atom:curcumin/C7		0.07000	3.55000
	pair_coeff	@atom:curcumin/C5	@atom:curcumin/O8		0.09899	3.20858
	pair_coeff	@atom:curcumin/C5	@atom:curcumin/C9		0.07000	3.55000
	pair_coeff	@atom:curcumin/C5	@atom:curcumin/H10		0.04583	2.93104
	pair_coeff	@atom:curcumin/C5	@atom:curcumin/C11		0.07000	3.55000
	pair_coeff	@atom:curcumin/C5	@atom:curcumin/C12		0.06797	3.52491
	pair_coeff	@atom:curcumin/C5	@atom:curcumin/H13		0.04583	2.93104
	pair_coeff	@atom:curcumin/C5	@atom:curcumin/C14		0.07294	3.55000
	pair_coeff	@atom:curcumin/C5	@atom:curcumin/H15		0.04583	2.97909
	pair_coeff	@atom:curcumin/C5	@atom:curcumin/H16		0.04583	2.97909
	pair_coeff	@atom:curcumin/C5	@atom:curcumin/H17		0.04583	2.97909
	pair_coeff	@atom:curcumin/C5	@atom:curcumin/C18		0.07294	3.55000
	pair_coeff	@atom:curcumin/C5	@atom:curcumin/H19		0.04583	2.97909
	pair_coeff	@atom:curcumin/C5	@atom:curcumin/C20		0.07000	3.55000
	pair_coeff	@atom:curcumin/C5	@atom:curcumin/H21		0.04583	2.97909
	pair_coeff	@atom:curcumin/C5	@atom:curcumin/C22		0.06797	3.52491
	pair_coeff	@atom:curcumin/C5	@atom:curcumin/O23		0.12124	3.24160
	pair_coeff	@atom:curcumin/C5	@atom:curcumin/C24		0.07000	3.55000
	pair_coeff	@atom:curcumin/C5	@atom:curcumin/H25		0.04583	2.97909
	pair_coeff	@atom:curcumin/C5	@atom:curcumin/H26		0.04583	2.97909
	pair_coeff	@atom:curcumin/C5	@atom:curcumin/C27		0.07294	3.55000
	pair_coeff	@atom:curcumin/C5	@atom:curcumin/O28		0.12124	3.24160
	pair_coeff	@atom:curcumin/C5	@atom:curcumin/C29		0.07294	3.55000
	pair_coeff	@atom:curcumin/C5	@atom:curcumin/H30		0.04583	2.97909
	pair_coeff	@atom:curcumin/C5	@atom:curcumin/C31		0.07000	3.55000
	pair_coeff	@atom:curcumin/C5	@atom:curcumin/H32		0.04583	2.97909
	pair_coeff	@atom:curcumin/C5	@atom:curcumin/C33		0.07000	3.55000
	pair_coeff	@atom:curcumin/C5	@atom:curcumin/C34		0.07000	3.55000
	pair_coeff	@atom:curcumin/C5	@atom:curcumin/H35		0.04583	2.93104
	pair_coeff	@atom:curcumin/C5	@atom:curcumin/C36		0.07000	3.55000
	pair_coeff	@atom:curcumin/C5	@atom:curcumin/H37		0.04583	2.93104
	pair_coeff	@atom:curcumin/C5	@atom:curcumin/C38		0.07000	3.55000
	pair_coeff	@atom:curcumin/C5	@atom:curcumin/H39		0.04583	2.93104
	pair_coeff	@atom:curcumin/C5	@atom:curcumin/C40		0.07000	3.55000
	pair_coeff	@atom:curcumin/C5	@atom:curcumin/O41		0.09899	3.20858
	pair_coeff	@atom:curcumin/C5	@atom:curcumin/O42		0.10909	3.32806
	pair_coeff	@atom:curcumin/C5	@atom:curcumin/C43		0.06797	3.52491
	pair_coeff	@atom:curcumin/C5	@atom:curcumin/H44		0.00000	0.00000
	pair_coeff	@atom:curcumin/C5	@atom:curcumin/H45		0.04583	2.97909
	pair_coeff	@atom:curcumin/C5	@atom:curcumin/H46		0.04583	2.97909
	pair_coeff	@atom:curcumin/C5	@atom:curcumin/H47		0.04583	2.97909
	pair_coeff	@atom:curcumin/C5	@atom:acrylic_acid/O1		0.12124	3.24160
	pair_coeff	@atom:curcumin/C5	@atom:acrylic_acid/C2		0.07000	3.55000
	pair_coeff	@atom:curcumin/C5	@atom:acrylic_acid/O3		0.10909	3.32806
	pair_coeff	@atom:curcumin/C5	@atom:acrylic_acid/C4		0.07294	3.55000
	pair_coeff	@atom:curcumin/C5	@atom:acrylic_acid/C5		0.07294	3.55000
	pair_coeff	@atom:curcumin/C5	@atom:acrylic_acid/H6		0.00000	0.00000
	pair_coeff	@atom:curcumin/C5	@atom:acrylic_acid/H7		0.04583	2.97909
	pair_coeff	@atom:curcumin/C5	@atom:acrylic_acid/H8		0.04583	2.97909
	pair_coeff	@atom:curcumin/C5	@atom:acrylic_acid/H9		0.04583	2.97909
	pair_coeff	@atom:curcumin/C5	@atom:egdma/C1		0.06797	3.52491
	pair_coeff	@atom:curcumin/C5	@atom:egdma/C2		0.07294	3.55000
	pair_coeff	@atom:curcumin/C5	@atom:egdma/C3		0.07294	3.55000
	pair_coeff	@atom:curcumin/C5	@atom:egdma/C4		0.07000	3.55000
	pair_coeff	@atom:curcumin/C5	@atom:egdma/O5		0.12124	3.24160
	pair_coeff	@atom:curcumin/C5	@atom:egdma/O6		0.09899	3.20858
	pair_coeff	@atom:curcumin/C5	@atom:egdma/C7		0.06797	3.52491
	pair_coeff	@atom:curcumin/C5	@atom:egdma/C8		0.06797	3.52491
	pair_coeff	@atom:curcumin/C5	@atom:egdma/O9		0.09899	3.20858
	pair_coeff	@atom:curcumin/C5	@atom:egdma/C10		0.07000	3.55000
	pair_coeff	@atom:curcumin/C5	@atom:egdma/O11		0.12124	3.24160
	pair_coeff	@atom:curcumin/C5	@atom:egdma/C12		0.07294	3.55000
	pair_coeff	@atom:curcumin/C5	@atom:egdma/C13		0.07294	3.55000
	pair_coeff	@atom:curcumin/C5	@atom:egdma/C14		0.06797	3.52491
	pair_coeff	@atom:curcumin/C5	@atom:egdma/H15		0.04583	2.97909
	pair_coeff	@atom:curcumin/C5	@atom:egdma/H16		0.04583	2.97909
	pair_coeff	@atom:curcumin/C5	@atom:egdma/H17		0.04583	2.97909
	pair_coeff	@atom:curcumin/C5	@atom:egdma/H18		0.04583	2.97909
	pair_coeff	@atom:curcumin/C5	@atom:egdma/H19		0.04583	2.97909
	pair_coeff	@atom:curcumin/C5	@atom:egdma/H20		0.04583	2.97909
	pair_coeff	@atom:curcumin/C5	@atom:egdma/H21		0.04583	2.97909
	pair_coeff	@atom:curcumin/C5	@atom:egdma/H22		0.04583	2.97909
	pair_coeff	@atom:curcumin/C5	@atom:egdma/H23		0.04583	2.97909
	pair_coeff	@atom:curcumin/C5	@atom:egdma/H24		0.04583	2.97909
	pair_coeff	@atom:curcumin/C5	@atom:egdma/H25		0.04583	2.97909
	pair_coeff	@atom:curcumin/C5	@atom:egdma/H26		0.04583	2.97909
	pair_coeff	@atom:curcumin/C5	@atom:egdma/H27		0.04583	2.97909
	pair_coeff	@atom:curcumin/C5	@atom:egdma/H28		0.04583	2.97909
	pair_coeff	@atom:curcumin/C5	@atom:acetonitrile/C1		0.06797	3.42272
	pair_coeff	@atom:curcumin/C5	@atom:acetonitrile/N2		0.10909	3.37046
	pair_coeff	@atom:curcumin/C5	@atom:acetonitrile/C3		0.06797	3.52491
	pair_coeff	@atom:curcumin/C5	@atom:acetonitrile/H4		0.04583	2.97909
	pair_coeff	@atom:curcumin/C5	@atom:acetonitrile/H5		0.04583	2.97909
	pair_coeff	@atom:curcumin/C5	@atom:acetonitrile/H6		0.04583	2.97909
	pair_coeff	@atom:curcumin/H6	@atom:curcumin/H6		0.03000	2.42000
	pair_coeff	@atom:curcumin/H6	@atom:curcumin/C7		0.04583	2.93104
	pair_coeff	@atom:curcumin/H6	@atom:curcumin/O8		0.06481	2.64915
	pair_coeff	@atom:curcumin/H6	@atom:curcumin/C9		0.04583	2.93104
	pair_coeff	@atom:curcumin/H6	@atom:curcumin/H10		0.03000	2.42000
	pair_coeff	@atom:curcumin/H6	@atom:curcumin/C11		0.04583	2.93104