#Sientase libre de modificar esto a su gusto!
units             real
atom_style        full
pair_style        lj/cut/coul/long  10.0	10.0
kspace_style 	   pppm 1.0e-4
special_bonds     lj/coul 0.0 0.0 0.5
bond_style        harmonic
angle_style       harmonic
dihedral_style    opls
improper_style    cvff
pair_modify       mix geometric
boundary          p p p
